p cnf 7230 16
-3704 -4228 -4872 0
-3702 -4222 -4870 0
-3700 -4224 -4868 0
3704 -4873 0
3702 -4871 0
3700 -4869 0
4872 4873 0
4870 4871 0
4868 4869 0
4866 4867 0
4218 -4867 0
-4218 -4866 0
4228 -4873 0
4222 -4871 0
4224 -4869 0
4864 4865 0
